16  320339
1   8   41    52    62    63    18    44    30    35    
2   5   1    10    26    45    80    
3   4   22    69    28    47    
4   4   2    11    29    53    
5   7   56    66    72    74    7    8    20    
6   4   17    15    31    54    
7   5   27    48    68    78    14    
8   4   3    12    33    55    
9   4   42    70    25    60    
10   4   4    13    34    61    
11   4   5    16    36    65    
12   4   67    19    39    73    
13   7   32    46    49    50    58    79    59    
14   7   51    71    77    37    64    24    75    
15   5   23    38    43    57    9    
16   4   6    21    40    76    

